c description: Random 3-CNF over 13 variables and 26 clauses
p cnf 13 26
-8 -9 -11 0
3 7 -8 0
-2 -5 11 0
-6 -9 12 0
-3 8 -9 0
4 6 -11 0
-8 -9 -13 0
2 5 6 0
3 -4 11 0
-2 -11 12 0
3 7 9 0
1 2 -11 0
6 -8 12 0
5 7 9 0
8 9 10 0
2 -11 12 0
5 11 -13 0
2 4 -9 0
6 10 12 0
1 11 -13 0
3 -6 -9 0
1 5 11 0
4 8 -12 0
2 4 6 0
-6 -7 9 0
4 8 9 0